(set-info :source |printed by MathSAT|)
(declare-fun |!{$(in_main#0)<N>}| () Int)
(declare-fun |!{$(in_main#0)<N>}.next| () Int)
(declare-fun |!{$(in_main#0)<&array1>}| () Int)
(declare-fun |!{$(in_main#0)<&array1>}.next| () Int)
(declare-fun |!{$(in_main#0)<&array2>}| () Int)
(declare-fun |!{$(in_main#0)<&array2>}.next| () Int)
(declare-fun |!{$(in_main#0)<k>}| () Int)
(declare-fun |!{$(in_main#0)<k>}.next| () Int)
(declare-fun |!{$(in_main#0)<k#1>}| () Int)
(declare-fun |!{$(in_main#0)<k#1>}.next| () Int)
(declare-fun |!{%memaddr}| () Int)
(declare-fun |!{%memaddr}.next| () Int)
(declare-fun |!{%mem.0}| () (Array Int Int))
(declare-fun |!{%mem.0}.next| () (Array Int Int))
(declare-fun |!{$(in_main#0)<$(in___VERIFIER_nondet_int#2)<h#<__VERIFIER_nondet_int.return>>>}| () Int)
(declare-fun |!{$(in_main#0)<$(in___VERIFIER_nondet_int#4)<h#<__VERIFIER_nondet_int.return>>>}| () Int)
(declare-fun |!{$(in_main#0)<$(in___VERIFIER_nondet_int#5)<h#<__VERIFIER_nondet_int.return>>>}| () Int)
(declare-fun |!{$(in_main#0)<$(in_rec_array_compare_left#6)<$temp.1>>}| () Int)
(declare-fun |!{$(in_main#0)<$(in_rec_array_compare_left#6)<$tmp>>}| () Int)
(declare-fun |!{$(in_main#0)<$(in_rec_array_compare_left#6)<$(in_rec_array_compare_right#0)<$temp.1>>>}| () Int)
(declare-fun |!{$(in_main#0)<$(in_rec_array_compare_left#6)<$(in_rec_array_compare_right#0)<$tmp>>>}| () Int)
(declare-fun |!{$(in_main#0)<$(in_rec_array_compare_left#6)<$(in_rec_array_compare_right#0)<$(in_rec_array_compare_left#0)<$temp.1>>>>}| () Int)
(declare-fun |!{$(in_main#0)<$(in_rec_array_compare_left#6)<$(in_rec_array_compare_right#0)<$(in_rec_array_compare_left#0)<$tmp>>>>}| () Int)
(declare-fun |!{$(in_main#0)<$(in_rec_array_compare_left#6)<$(in_rec_array_compare_right#0)<$(in_rec_array_compare_left#0)<$(in_rec_array_compare_right#0)<$temp.1>>>>>}| () Int)
(declare-fun |!{$(in_main#0)<$(in_rec_array_compare_left#6)<$(in_rec_array_compare_right#0)<$(in_rec_array_compare_left#0)<$(in_rec_array_compare_right#0)<$tmp>>>>>}| () Int)
(declare-fun !pc () Int)
(declare-fun !pc.next () Int)
(declare-fun |%{$(in_main#0)<k#1>}#1| () Int)
(declare-fun rec_array_compare_left<0> (Int Int Int Int Int) Int)
(declare-fun |%{$(in_main#0)<$(in_rec_array_compare_left#6)<$(in_rec_array_compare_right#0)<$(in_rec_array_compare_left#0)<$(in_rec_array_compare_right#0)<$temp.1>>>>>}#3| () Int)
(declare-fun |%{$(in_main#0)<$(in_rec_array_compare_left#6)<$(in_rec_array_compare_right#0)<$(in_rec_array_compare_left#0)<$(in_rec_array_compare_right#0)<$tmp>>>>>}#3| () Int)
(declare-fun |%{$(in_main#0)<$(in_rec_array_compare_left#6)<$(in_rec_array_compare_right#0)<$(in_rec_array_compare_left#0)<$(in_rec_array_compare_right#0)<rec_array_compare_right.return>>>>>}#3| () Int)
(declare-fun |%{$(in_main#0)<$(in_rec_array_compare_left#6)<$(in_rec_array_compare_right#0)<$(in_rec_array_compare_left#0)<$temp.1>>>>}#3| () Int)
(declare-fun |%{$(in_main#0)<$(in_rec_array_compare_left#6)<$(in_rec_array_compare_right#0)<$(in_rec_array_compare_left#0)<$tmp>>>>}#3| () Int)
(declare-fun |%{$(in_main#0)<$(in_rec_array_compare_left#6)<$(in_rec_array_compare_right#0)<$(in_rec_array_compare_left#0)<rec_array_compare_left.return>>>>}#3| () Int)
(declare-fun |%{$(in_main#0)<$(in_rec_array_compare_left#6)<$(in_rec_array_compare_right#0)<$temp.1>>>}#3| () Int)
(declare-fun |%{$(in_main#0)<$(in_rec_array_compare_left#6)<$(in_rec_array_compare_right#0)<$tmp>>>}#3| () Int)
(declare-fun |%{$(in_main#0)<$(in_rec_array_compare_left#6)<$(in_rec_array_compare_right#0)<rec_array_compare_right.return>>>}#3| () Int)
(declare-fun |%{$(in_main#0)<$(in_rec_array_compare_left#6)<$temp.1>>}#3| () Int)
(declare-fun |%{$(in_main#0)<$(in_rec_array_compare_left#6)<$tmp>>}#3| () Int)
(declare-fun |%{$(in_main#0)<$(in_rec_array_compare_left#6)<rec_array_compare_left.return>>}#3| () Int)
(define-fun .def_84 () Int (! !pc :next !pc.next))
(define-fun .def_87 () Bool (! (= .def_84 2) :init true))
(define-fun .def_440 () Bool (= .def_84 60))
(define-fun .def_176 () Bool (= !pc.next 0))
(define-fun .def_446 () Bool (and .def_176 .def_440))
(define-fun .def_412 () Bool (= |%{$(in_main#0)<$(in_rec_array_compare_left#6)<rec_array_compare_left.return>>}#3| 1))
(define-fun .def_418 () Bool (not .def_412))
(define-fun .def_10 () Int (! |!{$(in_main#0)<&array1>}| :next |!{$(in_main#0)<&array1>}.next|))
(define-fun .def_138 () Bool (= .def_10 |!{$(in_main#0)<&array1>}.next|))
(define-fun .def_8 () Int (! |!{$(in_main#0)<N>}| :next |!{$(in_main#0)<N>}.next|))
(define-fun .def_136 () Bool (= .def_8 |!{$(in_main#0)<N>}.next|))
(define-fun .def_150 () Bool (and .def_136 .def_138))
(define-fun .def_12 () Int (! |!{$(in_main#0)<&array2>}| :next |!{$(in_main#0)<&array2>}.next|))
(define-fun .def_140 () Bool (= .def_12 |!{$(in_main#0)<&array2>}.next|))
(define-fun .def_151 () Bool (and .def_140 .def_150))
(define-fun .def_14 () Int (! |!{$(in_main#0)<k>}| :next |!{$(in_main#0)<k>}.next|))
(define-fun .def_142 () Bool (= .def_14 |!{$(in_main#0)<k>}.next|))
(define-fun .def_152 () Bool (and .def_142 .def_151))
(define-fun .def_16 () Int (! |!{$(in_main#0)<k#1>}| :next |!{$(in_main#0)<k#1>}.next|))
(define-fun .def_144 () Bool (= .def_16 |!{$(in_main#0)<k#1>}.next|))
(define-fun .def_162 () Bool (and .def_144 .def_152))
(define-fun .def_18 () Int (! |!{%memaddr}| :next |!{%memaddr}.next|))
(define-fun .def_146 () Bool (= .def_18 |!{%memaddr}.next|))
(define-fun .def_163 () Bool (and .def_146 .def_162))
(define-fun .def_20 () (Array Int Int) (! |!{%mem.0}| :next |!{%mem.0}.next|))
(define-fun .def_116 () Bool (= .def_20 |!{%mem.0}.next|))
(define-fun .def_164 () Bool (and .def_116 .def_163))
(define-fun .def_437 () Bool (and .def_164 .def_418))
(define-fun .def_192 () Bool (<= 0 .def_8))
(define-fun .def_190 () Bool (<= .def_8 0))
(define-fun .def_191 () Bool (not .def_190))
(define-fun .def_193 () Bool (and .def_191 .def_192))
(define-fun .def_408 () Bool (not .def_193))
(define-fun .def_390 () Bool (= |!{$(in_main#0)<$(in_rec_array_compare_left#6)<$temp.1>>}| |%{$(in_main#0)<$(in_rec_array_compare_left#6)<$temp.1>>}#3|))
(define-fun .def_410 () Bool (and .def_390 .def_408))
(define-fun .def_396 () Bool (= |!{$(in_main#0)<$(in_rec_array_compare_left#6)<$tmp>>}| |%{$(in_main#0)<$(in_rec_array_compare_left#6)<$tmp>>}#3|))
(define-fun .def_411 () Bool (and .def_396 .def_410))
(define-fun .def_413 () Bool (and .def_411 .def_412))
(define-fun .def_402 () Bool (= |%{$(in_main#0)<$(in_rec_array_compare_left#6)<$(in_rec_array_compare_right#0)<rec_array_compare_right.return>>>}#3| |%{$(in_main#0)<$(in_rec_array_compare_left#6)<rec_array_compare_left.return>>}#3|))
(define-fun .def_397 () Bool (= |%{$(in_main#0)<$(in_rec_array_compare_left#6)<$(in_rec_array_compare_right#0)<rec_array_compare_right.return>>>}#3| |%{$(in_main#0)<$(in_rec_array_compare_left#6)<$tmp>>}#3|))
(define-fun .def_391 () Bool (= |%{$(in_main#0)<$(in_rec_array_compare_left#6)<$(in_rec_array_compare_right#0)<rec_array_compare_right.return>>>}#3| |%{$(in_main#0)<$(in_rec_array_compare_left#6)<$temp.1>>}#3|))
(define-fun .def_380 () Bool (= |%{$(in_main#0)<$(in_rec_array_compare_left#6)<$(in_rec_array_compare_right#0)<rec_array_compare_right.return>>>}#3| 1))
(define-fun .def_201 () Bool (<= 1 .def_8))
(define-fun .def_198 () Bool (<= .def_8 1))
(define-fun .def_199 () Bool (not .def_198))
(define-fun .def_200 () Bool (and .def_191 .def_199))
(define-fun .def_202 () Bool (and .def_200 .def_201))
(define-fun .def_374 () Bool (not .def_202))
(define-fun .def_354 () Bool (= |!{$(in_main#0)<$(in_rec_array_compare_left#6)<$(in_rec_array_compare_right#0)<$temp.1>>>}| |%{$(in_main#0)<$(in_rec_array_compare_left#6)<$(in_rec_array_compare_right#0)<$temp.1>>>}#3|))
(define-fun .def_378 () Bool (and .def_354 .def_374))
(define-fun .def_360 () Bool (= |!{$(in_main#0)<$(in_rec_array_compare_left#6)<$(in_rec_array_compare_right#0)<$tmp>>>}| |%{$(in_main#0)<$(in_rec_array_compare_left#6)<$(in_rec_array_compare_right#0)<$tmp>>>}#3|))
(define-fun .def_379 () Bool (and .def_360 .def_378))
(define-fun .def_381 () Bool (and .def_379 .def_380))
(define-fun .def_366 () Bool (= |%{$(in_main#0)<$(in_rec_array_compare_left#6)<$(in_rec_array_compare_right#0)<$(in_rec_array_compare_left#0)<rec_array_compare_left.return>>>>}#3| |%{$(in_main#0)<$(in_rec_array_compare_left#6)<$(in_rec_array_compare_right#0)<rec_array_compare_right.return>>>}#3|))
(define-fun .def_361 () Bool (= |%{$(in_main#0)<$(in_rec_array_compare_left#6)<$(in_rec_array_compare_right#0)<$(in_rec_array_compare_left#0)<rec_array_compare_left.return>>>>}#3| |%{$(in_main#0)<$(in_rec_array_compare_left#6)<$(in_rec_array_compare_right#0)<$tmp>>>}#3|))
(define-fun .def_355 () Bool (= |%{$(in_main#0)<$(in_rec_array_compare_left#6)<$(in_rec_array_compare_right#0)<$(in_rec_array_compare_left#0)<rec_array_compare_left.return>>>>}#3| |%{$(in_main#0)<$(in_rec_array_compare_left#6)<$(in_rec_array_compare_right#0)<$temp.1>>>}#3|))
(define-fun .def_340 () Bool (= |%{$(in_main#0)<$(in_rec_array_compare_left#6)<$(in_rec_array_compare_right#0)<$(in_rec_array_compare_left#0)<rec_array_compare_left.return>>>>}#3| 1))
(define-fun .def_214 () Bool (<= 2 .def_8))
(define-fun .def_215 () Bool (and .def_199 .def_214))
(define-fun .def_332 () Bool (not .def_215))
(define-fun .def_310 () Bool (= |!{$(in_main#0)<$(in_rec_array_compare_left#6)<$(in_rec_array_compare_right#0)<$(in_rec_array_compare_left#0)<$temp.1>>>>}| |%{$(in_main#0)<$(in_rec_array_compare_left#6)<$(in_rec_array_compare_right#0)<$(in_rec_array_compare_left#0)<$temp.1>>>>}#3|))
(define-fun .def_338 () Bool (and .def_310 .def_332))
(define-fun .def_316 () Bool (= |!{$(in_main#0)<$(in_rec_array_compare_left#6)<$(in_rec_array_compare_right#0)<$(in_rec_array_compare_left#0)<$tmp>>>>}| |%{$(in_main#0)<$(in_rec_array_compare_left#6)<$(in_rec_array_compare_right#0)<$(in_rec_array_compare_left#0)<$tmp>>>>}#3|))
(define-fun .def_339 () Bool (and .def_316 .def_338))
(define-fun .def_341 () Bool (and .def_339 .def_340))
(define-fun .def_322 () Bool (= |%{$(in_main#0)<$(in_rec_array_compare_left#6)<$(in_rec_array_compare_right#0)<$(in_rec_array_compare_left#0)<$(in_rec_array_compare_right#0)<rec_array_compare_right.return>>>>>}#3| |%{$(in_main#0)<$(in_rec_array_compare_left#6)<$(in_rec_array_compare_right#0)<$(in_rec_array_compare_left#0)<rec_array_compare_left.return>>>>}#3|))
(define-fun .def_317 () Bool (= |%{$(in_main#0)<$(in_rec_array_compare_left#6)<$(in_rec_array_compare_right#0)<$(in_rec_array_compare_left#0)<$(in_rec_array_compare_right#0)<rec_array_compare_right.return>>>>>}#3| |%{$(in_main#0)<$(in_rec_array_compare_left#6)<$(in_rec_array_compare_right#0)<$(in_rec_array_compare_left#0)<$tmp>>>>}#3|))
(define-fun .def_311 () Bool (= |%{$(in_main#0)<$(in_rec_array_compare_left#6)<$(in_rec_array_compare_right#0)<$(in_rec_array_compare_left#0)<$(in_rec_array_compare_right#0)<rec_array_compare_right.return>>>>>}#3| |%{$(in_main#0)<$(in_rec_array_compare_left#6)<$(in_rec_array_compare_right#0)<$(in_rec_array_compare_left#0)<$temp.1>>>>}#3|))
(define-fun .def_292 () Bool (= |%{$(in_main#0)<$(in_rec_array_compare_left#6)<$(in_rec_array_compare_right#0)<$(in_rec_array_compare_left#0)<$(in_rec_array_compare_right#0)<rec_array_compare_right.return>>>>>}#3| 1))
(define-fun .def_225 () Bool (<= 3 .def_8))
(define-fun .def_222 () Bool (<= .def_8 2))
(define-fun .def_223 () Bool (not .def_222))
(define-fun .def_224 () Bool (and .def_199 .def_223))
(define-fun .def_226 () Bool (and .def_224 .def_225))
(define-fun .def_282 () Bool (not .def_226))
(define-fun .def_257 () Bool (= |!{$(in_main#0)<$(in_rec_array_compare_left#6)<$(in_rec_array_compare_right#0)<$(in_rec_array_compare_left#0)<$(in_rec_array_compare_right#0)<$temp.1>>>>>}| |%{$(in_main#0)<$(in_rec_array_compare_left#6)<$(in_rec_array_compare_right#0)<$(in_rec_array_compare_left#0)<$(in_rec_array_compare_right#0)<$temp.1>>>>>}#3|))
(define-fun .def_290 () Bool (and .def_257 .def_282))
(define-fun .def_263 () Bool (= |!{$(in_main#0)<$(in_rec_array_compare_left#6)<$(in_rec_array_compare_right#0)<$(in_rec_array_compare_left#0)<$(in_rec_array_compare_right#0)<$tmp>>>>>}| |%{$(in_main#0)<$(in_rec_array_compare_left#6)<$(in_rec_array_compare_right#0)<$(in_rec_array_compare_left#0)<$(in_rec_array_compare_right#0)<$tmp>>>>>}#3|))
(define-fun .def_291 () Bool (and .def_263 .def_290))
(define-fun .def_293 () Bool (and .def_291 .def_292))
(define-fun .def_237 () Int (+ .def_8 (- 2)))
(define-fun .def_238 () Int (rec_array_compare_left<0> .def_10 .def_12 2 .def_237 .def_8))
(define-fun .def_270 () Bool (= .def_238 |%{$(in_main#0)<$(in_rec_array_compare_left#6)<$(in_rec_array_compare_right#0)<$(in_rec_array_compare_left#0)<$(in_rec_array_compare_right#0)<rec_array_compare_right.return>>>>>}#3|))
(define-fun .def_264 () Bool (= .def_238 |%{$(in_main#0)<$(in_rec_array_compare_left#6)<$(in_rec_array_compare_right#0)<$(in_rec_array_compare_left#0)<$(in_rec_array_compare_right#0)<$tmp>>>>>}#3|))
(define-fun .def_258 () Bool (= .def_238 |%{$(in_main#0)<$(in_rec_array_compare_left#6)<$(in_rec_array_compare_right#0)<$(in_rec_array_compare_left#0)<$(in_rec_array_compare_right#0)<$temp.1>>>>>}#3|))
(define-fun .def_209 () Int (+ .def_8 .def_12))
(define-fun .def_233 () Int (+ .def_209 (- 2)))
(define-fun .def_234 () Int (select .def_20 .def_233))
(define-fun .def_205 () Int (+ .def_8 .def_10))
(define-fun .def_230 () Int (+ .def_205 (- 2)))
(define-fun .def_231 () Int (select .def_20 .def_230))
(define-fun .def_235 () Bool (= .def_231 .def_234))
(define-fun .def_260 () Bool (and .def_235 .def_258))
(define-fun .def_266 () Bool (and .def_260 .def_264))
(define-fun .def_272 () Bool (and .def_266 .def_270))
(define-fun .def_269 () Bool (= |%{$(in_main#0)<$(in_rec_array_compare_left#6)<$(in_rec_array_compare_right#0)<$(in_rec_array_compare_left#0)<$(in_rec_array_compare_right#0)<rec_array_compare_right.return>>>>>}#3| 0))
(define-fun .def_236 () Bool (not .def_235))
(define-fun .def_259 () Bool (and .def_236 .def_257))
(define-fun .def_265 () Bool (and .def_259 .def_263))
(define-fun .def_271 () Bool (and .def_265 .def_269))
(define-fun .def_273 () Bool (or .def_271 .def_272))
(define-fun .def_274 () Bool (and .def_226 .def_273))
(define-fun .def_294 () Bool (or .def_274 .def_293))
(define-fun .def_218 () Int (+ .def_12 1))
(define-fun .def_219 () Int (select .def_20 .def_218))
(define-fun .def_216 () Int (+ .def_10 1))
(define-fun .def_217 () Int (select .def_20 .def_216))
(define-fun .def_220 () Bool (= .def_217 .def_219))
(define-fun .def_295 () Bool (and .def_220 .def_294))
(define-fun .def_313 () Bool (and .def_295 .def_311))
(define-fun .def_319 () Bool (and .def_313 .def_317))
(define-fun .def_324 () Bool (and .def_319 .def_322))
(define-fun .def_321 () Bool (= |%{$(in_main#0)<$(in_rec_array_compare_left#6)<$(in_rec_array_compare_right#0)<$(in_rec_array_compare_left#0)<rec_array_compare_left.return>>>>}#3| 0))
(define-fun .def_221 () Bool (not .def_220))
(define-fun .def_312 () Bool (and .def_221 .def_310))
(define-fun .def_318 () Bool (and .def_312 .def_316))
(define-fun .def_323 () Bool (and .def_318 .def_321))
(define-fun .def_325 () Bool (or .def_323 .def_324))
(define-fun .def_326 () Bool (and .def_215 .def_325))
(define-fun .def_342 () Bool (or .def_326 .def_341))
(define-fun .def_210 () Int (+ .def_209 (- 1)))
(define-fun .def_211 () Int (select .def_20 .def_210))
(define-fun .def_206 () Int (+ .def_205 (- 1)))
(define-fun .def_207 () Int (select .def_20 .def_206))
(define-fun .def_212 () Bool (= .def_207 .def_211))
(define-fun .def_343 () Bool (and .def_212 .def_342))
(define-fun .def_357 () Bool (and .def_343 .def_355))
(define-fun .def_363 () Bool (and .def_357 .def_361))
(define-fun .def_368 () Bool (and .def_363 .def_366))
(define-fun .def_365 () Bool (= |%{$(in_main#0)<$(in_rec_array_compare_left#6)<$(in_rec_array_compare_right#0)<rec_array_compare_right.return>>>}#3| 0))
(define-fun .def_213 () Bool (not .def_212))
(define-fun .def_356 () Bool (and .def_213 .def_354))
(define-fun .def_362 () Bool (and .def_356 .def_360))
(define-fun .def_367 () Bool (and .def_362 .def_365))
(define-fun .def_369 () Bool (or .def_367 .def_368))
(define-fun .def_370 () Bool (and .def_202 .def_369))
(define-fun .def_382 () Bool (or .def_370 .def_381))
(define-fun .def_195 () Int (select .def_20 .def_12))
(define-fun .def_194 () Int (select .def_20 .def_10))
(define-fun .def_196 () Bool (= .def_194 .def_195))
(define-fun .def_383 () Bool (and .def_196 .def_382))
(define-fun .def_393 () Bool (and .def_383 .def_391))
(define-fun .def_399 () Bool (and .def_393 .def_397))
(define-fun .def_404 () Bool (and .def_399 .def_402))
(define-fun .def_401 () Bool (= |%{$(in_main#0)<$(in_rec_array_compare_left#6)<rec_array_compare_left.return>>}#3| 0))
(define-fun .def_197 () Bool (not .def_196))
(define-fun .def_392 () Bool (and .def_197 .def_390))
(define-fun .def_398 () Bool (and .def_392 .def_396))
(define-fun .def_403 () Bool (and .def_398 .def_401))
(define-fun .def_405 () Bool (or .def_403 .def_404))
(define-fun .def_406 () Bool (and .def_193 .def_405))
(define-fun .def_414 () Bool (or .def_406 .def_413))
(define-fun .def_438 () Bool (and .def_414 .def_437))
(define-fun .def_183 () Bool (<= .def_8 .def_14))
(define-fun .def_439 () Bool (and .def_183 .def_438))
(define-fun .def_447 () Bool (and .def_439 .def_446))
(define-fun .def_172 () Bool (= !pc.next 252))
(define-fun .def_443 () Bool (and .def_172 .def_440))
(define-fun .def_430 () Bool (= |!{$(in_main#0)<k#1>}.next| 0))
(define-fun .def_431 () Bool (and .def_152 .def_430))
(define-fun .def_432 () Bool (and .def_146 .def_431))
(define-fun .def_433 () Bool (and .def_116 .def_432))
(define-fun .def_434 () Bool (and .def_412 .def_433))
(define-fun .def_435 () Bool (and .def_414 .def_434))
(define-fun .def_436 () Bool (and .def_183 .def_435))
(define-fun .def_444 () Bool (and .def_436 .def_443))
(define-fun .def_120 () Bool (= !pc.next 60))
(define-fun .def_441 () Bool (and .def_120 .def_440))
(define-fun .def_187 () Int (+ .def_12 .def_14))
(define-fun .def_185 () Int (+ .def_10 .def_14))
(define-fun .def_186 () (Array Int Int) (store .def_20 .def_185 |!{$(in_main#0)<$(in___VERIFIER_nondet_int#4)<h#<__VERIFIER_nondet_int.return>>>}|))
(define-fun .def_188 () (Array Int Int) (store .def_186 .def_187 |!{$(in_main#0)<$(in___VERIFIER_nondet_int#5)<h#<__VERIFIER_nondet_int.return>>>}|))
(define-fun .def_427 () Bool (= |!{%mem.0}.next| .def_188))
(define-fun .def_421 () Int (* (- 1) |!{$(in_main#0)<k>}.next|))
(define-fun .def_422 () Int (+ .def_14 .def_421))
(define-fun .def_423 () Bool (= .def_422 (- 1)))
(define-fun .def_424 () Bool (and .def_151 .def_423))
(define-fun .def_425 () Bool (and .def_144 .def_424))
(define-fun .def_426 () Bool (and .def_146 .def_425))
(define-fun .def_428 () Bool (and .def_426 .def_427))
(define-fun .def_184 () Bool (not .def_183))
(define-fun .def_429 () Bool (and .def_184 .def_428))
(define-fun .def_442 () Bool (and .def_429 .def_441))
(define-fun .def_445 () Bool (or .def_442 .def_444))
(define-fun .def_448 () Bool (or .def_445 .def_447))
(define-fun .def_167 () Bool (= .def_84 252))
(define-fun .def_177 () Bool (and .def_167 .def_176))
(define-fun .def_123 () Bool (<= .def_8 .def_16))
(define-fun .def_165 () Bool (and .def_123 .def_164))
(define-fun .def_178 () Bool (and .def_165 .def_177))
(define-fun .def_173 () Bool (and .def_167 .def_172))
(define-fun .def_154 () Int (* (- 1) |!{$(in_main#0)<k#1>}.next|))
(define-fun .def_155 () Int (+ .def_16 .def_154))
(define-fun .def_156 () Bool (= .def_155 (- 1)))
(define-fun .def_157 () Bool (and .def_152 .def_156))
(define-fun .def_158 () Bool (and .def_146 .def_157))
(define-fun .def_159 () Bool (and .def_116 .def_158))
(define-fun .def_127 () Int (+ .def_12 .def_16))
(define-fun .def_128 () Int (select .def_20 .def_127))
(define-fun .def_125 () Int (+ .def_10 .def_16))
(define-fun .def_126 () Int (select .def_20 .def_125))
(define-fun .def_129 () Bool (= .def_126 .def_128))
(define-fun .def_130 () Int (ite .def_129 1 0))
(define-fun .def_131 () Bool (= .def_130 0))
(define-fun .def_132 () Bool (not .def_131))
(define-fun .def_160 () Bool (and .def_132 .def_159))
(define-fun .def_124 () Bool (not .def_123))
(define-fun .def_161 () Bool (and .def_124 .def_160))
(define-fun .def_174 () Bool (and .def_161 .def_173))
(define-fun .def_169 () Bool (= !pc.next 272))
(define-fun .def_170 () Bool (and .def_167 .def_169))
(define-fun .def_137 () Bool (and .def_131 .def_136))
(define-fun .def_139 () Bool (and .def_137 .def_138))
(define-fun .def_141 () Bool (and .def_139 .def_140))
(define-fun .def_143 () Bool (and .def_141 .def_142))
(define-fun .def_145 () Bool (and .def_143 .def_144))
(define-fun .def_147 () Bool (and .def_145 .def_146))
(define-fun .def_148 () Bool (and .def_116 .def_147))
(define-fun .def_149 () Bool (and .def_124 .def_148))
(define-fun .def_171 () Bool (and .def_149 .def_170))
(define-fun .def_175 () Bool (or .def_171 .def_174))
(define-fun .def_179 () Bool (or .def_175 .def_178))
(define-fun .def_121 () Bool (and .def_87 .def_120))
(define-fun .def_114 () Bool (= |!{%memaddr}.next| 3))
(define-fun .def_112 () Bool (= |!{$(in_main#0)<k#1>}.next| |%{$(in_main#0)<k#1>}#1|))
(define-fun .def_110 () Bool (= |!{$(in_main#0)<k>}.next| 0))
(define-fun .def_108 () Bool (= |!{$(in_main#0)<&array2>}.next| 2))
(define-fun .def_106 () Bool (= |!{$(in_main#0)<&array1>}.next| 1))
(define-fun .def_105 () Bool (= |!{$(in_main#0)<N>}.next| |!{$(in_main#0)<$(in___VERIFIER_nondet_int#2)<h#<__VERIFIER_nondet_int.return>>>}|))
(define-fun .def_107 () Bool (and .def_105 .def_106))
(define-fun .def_109 () Bool (and .def_107 .def_108))
(define-fun .def_111 () Bool (and .def_109 .def_110))
(define-fun .def_113 () Bool (and .def_111 .def_112))
(define-fun .def_115 () Bool (and .def_113 .def_114))
(define-fun .def_117 () Bool (and .def_115 .def_116))
(define-fun .def_100 () Bool (<= |!{$(in_main#0)<$(in___VERIFIER_nondet_int#2)<h#<__VERIFIER_nondet_int.return>>>}| 0))
(define-fun .def_101 () Bool (not .def_100))
(define-fun .def_102 () Int (ite .def_101 1 0))
(define-fun .def_103 () Bool (= .def_102 0))
(define-fun .def_104 () Bool (not .def_103))
(define-fun .def_118 () Bool (and .def_104 .def_117))
(define-fun .def_122 () Bool (and .def_118 .def_121))
(define-fun .def_180 () Bool (or .def_122 .def_179))
(define-fun .def_449 () Bool (! (or .def_180 .def_448) :trans true))
(define-fun .def_181 () Bool (= .def_84 272))
(define-fun .def_450 () Bool (! (not .def_181) :invar-property 0 :invar-property-name ||))
(assert true)
